\ENCODING=ISO-8859-1
\Problem name: ilog.cplex

Minimize
 obj1: 94405 x1 + 106223 x2 + 109551 x3 + 102780 x4 + 103523 x5 + 100099 x6
       + 95591 x7 + 92429 x8 + 105550 x9 + 107655 x10 + 92147 x11 + 103906 x12
       + 104644 x13 + 106459 x14 + 98904 x15 + 95249 x16 + 109267 x17
       + 95338 x18 + 109297 x19 + 102971 x20 + 90846 x21 + 99263 x22
       + 92354 x23 + 93421 x24 + 107109 x25 + 104251 x26 + 101509 x27
       + 99513 x28 + 106078 x29 + 99528 x30 + 99849 x31 + 97008 x32
       + 106298 x33 + 107033 x34 + 98622 x35 + 97721 x36 + 109029 x37
       + 106792 x38 + 103792 x39 + 95744 x40 + 98921 x41 + 100762 x42
       + 94078 x43 + 97231 x44 + 91161 x45 + 97492 x46 + 93124 x47 + 94246 x48
       + 105066 x49 + 105222 x50 + 92052 x51 + 109273 x52 + 95023 x53
       + 107476 x54 + 108361 x55 + 90105 x56 + 102296 x57 + 105666 x58
       + 108881 x59 + 101326 x60 + 98730 x61 + 90291 x62 + 99642 x63
       + 109634 x64 + 97471 x65 + 102008 x66 + 108498 x67 + 106760 x68
       + 96125 x69 + 99462 x70 + 96980 x71 + 102224 x72 + 96963 x73
       + 101943 x74 + 95969 x75 + 99062 x76 + 91172 x77 + 107422 x78
       + 97988 x79 + 106437 x80 + 100981 x81 + 92560 x82 + 94878 x83
       + 108562 x84 + 99766 x85 + 109570 x86 + 91216 x87 + 105457 x88
       + 92131 x89 + 103770 x90 + 91016 x91 + 107807 x92 + 93496 x93
       + 105174 x94 + 108104 x95 + 105548 x96 + 101824 x97 + 97689 x98
       + 109014 x99 + 97807 x100 + 90416 x101 + 95304 x102 + 105662 x103
       + 90095 x104 + 96477 x105 + 99939 x106 + 95001 x107 + 100275 x108
       + 95313 x109 + 97245 x110 + 98019 x111 + 104173 x112 + 95609 x113
       + 103215 x114 + 103412 x115 + 99309 x116 + 109707 x117 + 104864 x118
       + 96631 x119 + 94490 x120 + 97695 x121 + 96977 x122 + 97539 x123
       + 99578 x124 + 102348 x125 + 100514 x126 + 105349 x127 + 97997 x128
       + 108937 x129 + 96759 x130 + 94109 x131 + 90025 x132 + 107546 x133
       + 100693 x134 + 98402 x135 + 109680 x136 + 109765 x137 + 102081 x138
       + 105994 x139 + 98323 x140 + 96511 x141 + 103448 x142 + 91838 x143
       + 104035 x144 + 109194 x145 + 100325 x146 + 106132 x147 + 107448 x148
       + 102566 x149 + 101102 x150 + 91303 x151 + 96483 x152 + 98567 x153
       + 94062 x154 + 90267 x155 + 108651 x156 + 95828 x157 + 91489 x158
       + 106964 x159 + 99590 x160 + 105964 x161 + 93836 x162 + 96105 x163
       + 95247 x164 + 92258 x165 + 99846 x166 + 105685 x167 + 95330 x168
       + 94706 x169 + 109028 x170 + 92771 x171 + 104056 x172 + 93593 x173
       + 104625 x174 + 105611 x175 + 90428 x176 + 96744 x177 + 100082 x178
       + 107012 x179 + 103587 x180 + 108485 x181 + 100477 x182 + 106497 x183
       + 93315 x184 + 106151 x185 + 102780 x186 + 96854 x187 + 90972 x188
       + 103473 x189 + 101780 x190 + 94487 x191 + 91906 x192 + 99216 x193
       + 102107 x194 + 102352 x195 + 106859 x196 + 94194 x197 + 101065 x198
       + 109311 x199 + 96877 x200 + 93970 x201 + 99370 x202 + 101892 x203
       + 98329 x204 + 98022 x205 + 97597 x206 + 98417 x207 + 100126 x208
       + 109401 x209 + 95768 x210 + 97531 x211 + 106891 x212 + 106265 x213
       + 104235 x214 + 93679 x215 + 102138 x216 + 105734 x217 + 97352 x218
       + 91754 x219 + 99455 x220 + 98899 x221 + 92512 x222 + 104050 x223
       + 106384 x224 + 101060 x225 + 106804 x226 + 103082 x227 + 90923 x228
       + 90650 x229 + 109890 x230 + 91253 x231 + 102763 x232 + 102965 x233
       + 92645 x234 + 98804 x235 + 92648 x236 + 98117 x237 + 97688 x238
       + 102609 x239 + 100137 x240 + 96576 x241 + 90140 x242 + 90105 x243
       + 102561 x244 + 90187 x245 + 104776 x246 + 95034 x247 + 96128 x248
       + 91742 x249 + 103339 x250 + 21367 x251 + 21512 x252 + 21927 x253
       + 20080 x254 + 18537 x255 + 19987 x256 + 18504 x257 + 20264 x258
       + 21672 x259 + 20459 x260 + 18088 x261 + 19754 x262 + 21472 x263
       + 19359 x264 + 19177 x265 + 19552 x266 + 20753 x267 + 20655 x268
       + 20319 x269 + 20672 x270 + 21509 x271 + 21916 x272 + 18345 x273
       + 21221 x274 + 18026 x275 + 19340 x276 + 21283 x277 + 18795 x278
       + 20082 x279 + 19080 x280 + 18339 x281 + 21212 x282 + 18806 x283
       + 18674 x284 + 18044 x285 + 19776 x286 + 21652 x287 + 21252 x288
       + 21692 x289 + 18782 x290 + 18149 x291 + 18378 x292 + 18670 x293
       + 18911 x294 + 18794 x295 + 21022 x296 + 21077 x297 + 20420 x298
       + 19379 x299 + 23264 x300
Subject To
 c1:   - x19 - x22 + x42  = 0
 c2:   - x69 - x72 + x92  = 0
 c3:   - x119 - x122 + x142  = 0
 c4:   - x169 - x172 + x192  = 0
 c5:   - x219 - x222 + x242  = -1
 c6:   - x7 - x8 - x15 + x19 + x23 + x35 - x39 - x40 + x41  = 0
 c7:   - x57 - x58 - x65 + x69 + x73 + x85 - x89 - x90 + x91  = 0
 c8:   - x107 - x108 - x115 + x119 + x123 + x135 - x139 - x140 + x141  = 0
 c9:   - x157 - x158 - x165 + x169 + x173 + x185 - x189 - x190 + x191  = 1
 c10:  - x207 - x208 - x215 + x219 + x223 + x235 - x239 - x240 + x241  = 0
 c11:  x4 + x12 - x17 + x21 + x29 - x30  = 0
 c12:  x54 + x62 - x67 + x71 + x79 - x80  = 0
 c13:  x104 + x112 - x117 + x121 + x129 - x130  = 0
 c14:  x154 + x162 - x167 + x171 + x179 - x180  = 0
 c15:  x204 + x212 - x217 + x221 + x229 - x230  = 0
 c16:  - x16 + x36 + x38 - x44 + x45 + x47 + x50  = 0
 c17:  - x66 + x86 + x88 - x94 + x95 + x97 + x100  = 0
 c18:  - x116 + x136 + x138 - x144 + x145 + x147 + x150  = 0
 c19:  - x166 + x186 + x188 - x194 + x195 + x197 + x200  = -1
 c20:  - x216 + x236 + x238 - x244 + x245 + x247 + x250  = 0
 c21:  - x13 + x15 + x16 + x17 - x26 - x43 - x45  = 0
 c22:  - x63 + x65 + x66 + x67 - x76 - x93 - x95  = 0
 c23:  - x113 + x115 + x116 + x117 - x126 - x143 - x145  = 0
 c24:  - x163 + x165 + x166 + x167 - x176 - x193 - x195  = 0
 c25:  - x213 + x215 + x216 + x217 - x226 - x243 - x245  = 0
 c26:  - x11 + x18 - x21 - x24 + x26 + x31  = 0
 c27:  - x61 + x68 - x71 - x74 + x76 + x81  = 0
 c28:  - x111 + x118 - x121 - x124 + x126 + x131  = 0
 c29:  - x161 + x168 - x171 - x174 + x176 + x181  = 0
 c30:  - x211 + x218 - x221 - x224 + x226 + x231  = 0
 c31:  - x3 + x8 - x20 - x23 - x25 - x31 - x42  = 0
 c32:  - x53 + x58 - x70 - x73 - x75 - x81 - x92  = 0
 c33:  - x103 + x108 - x120 - x123 - x125 - x131 - x142  = 0
 c34:  - x153 + x158 - x170 - x173 - x175 - x181 - x192  = 0
 c35:  - x203 + x208 - x220 - x223 - x225 - x231 - x242  = 0
 c36:  x10 + x11 + x13 + x14 + x20 + x22 - x29 + x34 - x35 - x49 - x50  = 1
 c37:  x60 + x61 + x63 + x64 + x70 + x72 - x79 + x84 - x85 - x99 - x100  = 0
 c38:  x110 + x111 + x113 + x114 + x120 + x122 - x129 + x134 - x135 - x149
       - x150  = 1
 c39:  x160 + x161 + x163 + x164 + x170 + x172 - x179 + x184 - x185 - x199
       - x200  = 0
 c40:  x210 + x211 + x213 + x214 + x220 + x222 - x229 + x234 - x235 - x249
       - x250  = 0
 c41:  - x2 - x5 - x10 + x25 - x38 + x49  = 0
 c42:  - x52 - x55 - x60 + x75 - x88 + x99  = 0
 c43:  - x102 - x105 - x110 + x125 - x138 + x149  = -1
 c44:  - x152 - x155 - x160 + x175 - x188 + x199  = 0
 c45:  - x202 - x205 - x210 + x225 - x238 + x249  = 1
 c46:  x6 - x27 - x36 - x46 + x48  = -1
 c47:  x56 - x77 - x86 - x96 + x98  = 0
 c48:  x106 - x127 - x136 - x146 + x148  = 0
 c49:  x156 - x177 - x186 - x196 + x198  = 0
 c50:  x206 - x227 - x236 - x246 + x248  = 0
 c51:  x3 - x6 + x7 - x9 + x24 - x28 + x32 + x33 - x41  = 0
 c52:  x53 - x56 + x57 - x59 + x74 - x78 + x82 + x83 - x91  = 0
 c53:  x103 - x106 + x107 - x109 + x124 - x128 + x132 + x133 - x141  = 0
 c54:  x153 - x156 + x157 - x159 + x174 - x178 + x182 + x183 - x191  = 0
 c55:  x203 - x206 + x207 - x209 + x224 - x228 + x232 + x233 - x241  = 0
 c56:  x1 + x5 - x14 - x18 + x27 + x43  = 0
 c57:  x51 + x55 - x64 - x68 + x77 + x93  = 0
 c58:  x101 + x105 - x114 - x118 + x127 + x143  = 0
 c59:  x151 + x155 - x164 - x168 + x177 + x193  = 0
 c60:  x201 + x205 - x214 - x218 + x227 + x243  = 0
 c61:  - x12 - x33 - x34 + x37 + x39  = 0
 c62:  - x62 - x83 - x84 + x87 + x89  = -1
 c63:  - x112 - x133 - x134 + x137 + x139  = 0
 c64:  - x162 - x183 - x184 + x187 + x189  = 0
 c65:  - x212 - x233 - x234 + x237 + x239  = 0
 c66:  - x1 + x2 + x9 - x32 + x44  = 0
 c67:  - x51 + x52 + x59 - x82 + x94  = 0
 c68:  - x101 + x102 + x109 - x132 + x144  = 0
 c69:  - x151 + x152 + x159 - x182 + x194  = 0
 c70:  - x201 + x202 + x209 - x232 + x244  = 0
 c71:  - x4 + x28 + x30 - x37 + x40 + x46 - x47 - x48  = 0
 c72:  - x54 + x78 + x80 - x87 + x90 + x96 - x97 - x98  = 1
 c73:  - x104 + x128 + x130 - x137 + x140 + x146 - x147 - x148  = 0
 c74:  - x154 + x178 + x180 - x187 + x190 + x196 - x197 - x198  = 0
 c75:  - x204 + x228 + x230 - x237 + x240 + x246 - x247 - x248  = 0
 c76:  4 x1 + 4 x51 + 4 x101 + 4 x151 + 4 x201 - 2 x251 <= 0
 c77:  4 x2 + 4 x52 + 4 x102 + 4 x152 + 4 x202 - 2 x252 <= 0
 c78:  4 x3 + 4 x53 + 4 x103 + 4 x153 + 4 x203 - 2 x253 <= 0
 c79:  4 x4 + 4 x54 + 4 x104 + 4 x154 + 4 x204 - 2 x254 <= 0
 c80:  4 x5 + 4 x55 + 4 x105 + 4 x155 + 4 x205 - 2 x255 <= 0
 c81:  4 x6 + 4 x56 + 4 x106 + 4 x156 + 4 x206 - 2 x256 <= 0
 c82:  4 x7 + 4 x57 + 4 x107 + 4 x157 + 4 x207 - 2 x257 <= 0
 c83:  4 x8 + 4 x58 + 4 x108 + 4 x158 + 4 x208 - 2 x258 <= 0
 c84:  4 x9 + 4 x59 + 4 x109 + 4 x159 + 4 x209 - 2 x259 <= 0
 c85:  4 x10 + 4 x60 + 4 x110 + 4 x160 + 4 x210 - 2 x260 <= 0
 c86:  4 x11 + 4 x61 + 4 x111 + 4 x161 + 4 x211 - 2 x261 <= 0
 c87:  4 x12 + 4 x62 + 4 x112 + 4 x162 + 4 x212 - 2 x262 <= 0
 c88:  4 x13 + 4 x63 + 4 x113 + 4 x163 + 4 x213 - 2 x263 <= 0
 c89:  4 x14 + 4 x64 + 4 x114 + 4 x164 + 4 x214 - 2 x264 <= 0
 c90:  4 x15 + 4 x65 + 4 x115 + 4 x165 + 4 x215 - 2 x265 <= 0
 c91:  4 x16 + 4 x66 + 4 x116 + 4 x166 + 4 x216 - 2 x266 <= 0
 c92:  4 x17 + 4 x67 + 4 x117 + 4 x167 + 4 x217 - 2 x267 <= 0
 c93:  4 x18 + 4 x68 + 4 x118 + 4 x168 + 4 x218 - 2 x268 <= 0
 c94:  4 x19 + 4 x69 + 4 x119 + 4 x169 + 4 x219 - 2 x269 <= 0
 c95:  4 x20 + 4 x70 + 4 x120 + 4 x170 + 4 x220 - 2 x270 <= 0
 c96:  4 x21 + 4 x71 + 4 x121 + 4 x171 + 4 x221 - 2 x271 <= 0
 c97:  4 x22 + 4 x72 + 4 x122 + 4 x172 + 4 x222 - 2 x272 <= 0
 c98:  4 x23 + 4 x73 + 4 x123 + 4 x173 + 4 x223 - 2 x273 <= 0
 c99:  4 x24 + 4 x74 + 4 x124 + 4 x174 + 4 x224 - 2 x274 <= 0
 c100: 4 x25 + 4 x75 + 4 x125 + 4 x175 + 4 x225 - 2 x275 <= 0
 c101: 4 x26 + 4 x76 + 4 x126 + 4 x176 + 4 x226 - 2 x276 <= 0
 c102: 4 x27 + 4 x77 + 4 x127 + 4 x177 + 4 x227 - 2 x277 <= 0
 c103: 4 x28 + 4 x78 + 4 x128 + 4 x178 + 4 x228 - 2 x278 <= 0
 c104: 4 x29 + 4 x79 + 4 x129 + 4 x179 + 4 x229 - 2 x279 <= 0
 c105: 4 x30 + 4 x80 + 4 x130 + 4 x180 + 4 x230 - 2 x280 <= 0
 c106: 4 x31 + 4 x81 + 4 x131 + 4 x181 + 4 x231 - 2 x281 <= 0
 c107: 4 x32 + 4 x82 + 4 x132 + 4 x182 + 4 x232 - 2 x282 <= 0
 c108: 4 x33 + 4 x83 + 4 x133 + 4 x183 + 4 x233 - 2 x283 <= 0
 c109: 4 x34 + 4 x84 + 4 x134 + 4 x184 + 4 x234 - 2 x284 <= 0
 c110: 4 x35 + 4 x85 + 4 x135 + 4 x185 + 4 x235 - 2 x285 <= 0
 c111: 4 x36 + 4 x86 + 4 x136 + 4 x186 + 4 x236 - 2 x286 <= 0
 c112: 4 x37 + 4 x87 + 4 x137 + 4 x187 + 4 x237 - 2 x287 <= 0
 c113: 4 x38 + 4 x88 + 4 x138 + 4 x188 + 4 x238 - 2 x288 <= 0
 c114: 4 x39 + 4 x89 + 4 x139 + 4 x189 + 4 x239 - 2 x289 <= 0
 c115: 4 x40 + 4 x90 + 4 x140 + 4 x190 + 4 x240 - 2 x290 <= 0
 c116: 4 x41 + 4 x91 + 4 x141 + 4 x191 + 4 x241 - 2 x291 <= 0
 c117: 4 x42 + 4 x92 + 4 x142 + 4 x192 + 4 x242 - 2 x292 <= 0
 c118: 4 x43 + 4 x93 + 4 x143 + 4 x193 + 4 x243 - 2 x293 <= 0
 c119: 4 x44 + 4 x94 + 4 x144 + 4 x194 + 4 x244 - 2 x294 <= 0
 c120: 4 x45 + 4 x95 + 4 x145 + 4 x195 + 4 x245 - 2 x295 <= 0
 c121: 4 x46 + 4 x96 + 4 x146 + 4 x196 + 4 x246 - 2 x296 <= 0
 c122: 4 x47 + 4 x97 + 4 x147 + 4 x197 + 4 x247 - 2 x297 <= 0
 c123: 4 x48 + 4 x98 + 4 x148 + 4 x198 + 4 x248 - 2 x298 <= 0
 c124: 4 x49 + 4 x99 + 4 x149 + 4 x199 + 4 x249 - 2 x299 <= 0
 c125: 4 x50 + 4 x100 + 4 x150 + 4 x200 + 4 x250 - 2 x300 <= 0
Bounds
 0 <= x1 <= 1
 0 <= x2 <= 1
 0 <= x3 <= 1
 0 <= x4 <= 1
 0 <= x5 <= 1
 0 <= x6 <= 1
 0 <= x7 <= 1
 0 <= x8 <= 1
 0 <= x9 <= 1
 0 <= x10 <= 1
 0 <= x11 <= 1
 0 <= x12 <= 1
 0 <= x13 <= 1
 0 <= x14 <= 1
 0 <= x15 <= 1
 0 <= x16 <= 1
 0 <= x17 <= 1
 0 <= x18 <= 1
 0 <= x19 <= 1
 0 <= x20 <= 1
 0 <= x21 <= 1
 0 <= x22 <= 1
 0 <= x23 <= 1
 0 <= x24 <= 1
 0 <= x25 <= 1
 0 <= x26 <= 1
 0 <= x27 <= 1
 0 <= x28 <= 1
 0 <= x29 <= 1
 0 <= x30 <= 1
 0 <= x31 <= 1
 0 <= x32 <= 1
 0 <= x33 <= 1
 0 <= x34 <= 1
 0 <= x35 <= 1
 0 <= x36 <= 1
 0 <= x37 <= 1
 0 <= x38 <= 1
 0 <= x39 <= 1
 0 <= x40 <= 1
 0 <= x41 <= 1
 0 <= x42 <= 1
 0 <= x43 <= 1
 0 <= x44 <= 1
 0 <= x45 <= 1
 0 <= x46 <= 1
 0 <= x47 <= 1
 0 <= x48 <= 1
 0 <= x49 <= 1
 0 <= x50 <= 1
 0 <= x51 <= 1
 0 <= x52 <= 1
 0 <= x53 <= 1
 0 <= x54 <= 1
 0 <= x55 <= 1
 0 <= x56 <= 1
 0 <= x57 <= 1
 0 <= x58 <= 1
 0 <= x59 <= 1
 0 <= x60 <= 1
 0 <= x61 <= 1
 0 <= x62 <= 1
 0 <= x63 <= 1
 0 <= x64 <= 1
 0 <= x65 <= 1
 0 <= x66 <= 1
 0 <= x67 <= 1
 0 <= x68 <= 1
 0 <= x69 <= 1
 0 <= x70 <= 1
 0 <= x71 <= 1
 0 <= x72 <= 1
 0 <= x73 <= 1
 0 <= x74 <= 1
 0 <= x75 <= 1
 0 <= x76 <= 1
 0 <= x77 <= 1
 0 <= x78 <= 1
 0 <= x79 <= 1
 0 <= x80 <= 1
 0 <= x81 <= 1
 0 <= x82 <= 1
 0 <= x83 <= 1
 0 <= x84 <= 1
 0 <= x85 <= 1
 0 <= x86 <= 1
 0 <= x87 <= 1
 0 <= x88 <= 1
 0 <= x89 <= 1
 0 <= x90 <= 1
 0 <= x91 <= 1
 0 <= x92 <= 1
 0 <= x93 <= 1
 0 <= x94 <= 1
 0 <= x95 <= 1
 0 <= x96 <= 1
 0 <= x97 <= 1
 0 <= x98 <= 1
 0 <= x99 <= 1
 0 <= x100 <= 1
 0 <= x101 <= 1
 0 <= x102 <= 1
 0 <= x103 <= 1
 0 <= x104 <= 1
 0 <= x105 <= 1
 0 <= x106 <= 1
 0 <= x107 <= 1
 0 <= x108 <= 1
 0 <= x109 <= 1
 0 <= x110 <= 1
 0 <= x111 <= 1
 0 <= x112 <= 1
 0 <= x113 <= 1
 0 <= x114 <= 1
 0 <= x115 <= 1
 0 <= x116 <= 1
 0 <= x117 <= 1
 0 <= x118 <= 1
 0 <= x119 <= 1
 0 <= x120 <= 1
 0 <= x121 <= 1
 0 <= x122 <= 1
 0 <= x123 <= 1
 0 <= x124 <= 1
 0 <= x125 <= 1
 0 <= x126 <= 1
 0 <= x127 <= 1
 0 <= x128 <= 1
 0 <= x129 <= 1
 0 <= x130 <= 1
 0 <= x131 <= 1
 0 <= x132 <= 1
 0 <= x133 <= 1
 0 <= x134 <= 1
 0 <= x135 <= 1
 0 <= x136 <= 1
 0 <= x137 <= 1
 0 <= x138 <= 1
 0 <= x139 <= 1
 0 <= x140 <= 1
 0 <= x141 <= 1
 0 <= x142 <= 1
 0 <= x143 <= 1
 0 <= x144 <= 1
 0 <= x145 <= 1
 0 <= x146 <= 1
 0 <= x147 <= 1
 0 <= x148 <= 1
 0 <= x149 <= 1
 0 <= x150 <= 1
 0 <= x151 <= 1
 0 <= x152 <= 1
 0 <= x153 <= 1
 0 <= x154 <= 1
 0 <= x155 <= 1
 0 <= x156 <= 1
 0 <= x157 <= 1
 0 <= x158 <= 1
 0 <= x159 <= 1
 0 <= x160 <= 1
 0 <= x161 <= 1
 0 <= x162 <= 1
 0 <= x163 <= 1
 0 <= x164 <= 1
 0 <= x165 <= 1
 0 <= x166 <= 1
 0 <= x167 <= 1
 0 <= x168 <= 1
 0 <= x169 <= 1
 0 <= x170 <= 1
 0 <= x171 <= 1
 0 <= x172 <= 1
 0 <= x173 <= 1
 0 <= x174 <= 1
 0 <= x175 <= 1
 0 <= x176 <= 1
 0 <= x177 <= 1
 0 <= x178 <= 1
 0 <= x179 <= 1
 0 <= x180 <= 1
 0 <= x181 <= 1
 0 <= x182 <= 1
 0 <= x183 <= 1
 0 <= x184 <= 1
 0 <= x185 <= 1
 0 <= x186 <= 1
 0 <= x187 <= 1
 0 <= x188 <= 1
 0 <= x189 <= 1
 0 <= x190 <= 1
 0 <= x191 <= 1
 0 <= x192 <= 1
 0 <= x193 <= 1
 0 <= x194 <= 1
 0 <= x195 <= 1
 0 <= x196 <= 1
 0 <= x197 <= 1
 0 <= x198 <= 1
 0 <= x199 <= 1
 0 <= x200 <= 1
 0 <= x201 <= 1
 0 <= x202 <= 1
 0 <= x203 <= 1
 0 <= x204 <= 1
 0 <= x205 <= 1
 0 <= x206 <= 1
 0 <= x207 <= 1
 0 <= x208 <= 1
 0 <= x209 <= 1
 0 <= x210 <= 1
 0 <= x211 <= 1
 0 <= x212 <= 1
 0 <= x213 <= 1
 0 <= x214 <= 1
 0 <= x215 <= 1
 0 <= x216 <= 1
 0 <= x217 <= 1
 0 <= x218 <= 1
 0 <= x219 <= 1
 0 <= x220 <= 1
 0 <= x221 <= 1
 0 <= x222 <= 1
 0 <= x223 <= 1
 0 <= x224 <= 1
 0 <= x225 <= 1
 0 <= x226 <= 1
 0 <= x227 <= 1
 0 <= x228 <= 1
 0 <= x229 <= 1
 0 <= x230 <= 1
 0 <= x231 <= 1
 0 <= x232 <= 1
 0 <= x233 <= 1
 0 <= x234 <= 1
 0 <= x235 <= 1
 0 <= x236 <= 1
 0 <= x237 <= 1
 0 <= x238 <= 1
 0 <= x239 <= 1
 0 <= x240 <= 1
 0 <= x241 <= 1
 0 <= x242 <= 1
 0 <= x243 <= 1
 0 <= x244 <= 1
 0 <= x245 <= 1
 0 <= x246 <= 1
 0 <= x247 <= 1
 0 <= x248 <= 1
 0 <= x249 <= 1
 0 <= x250 <= 1
 0 <= x251 <= 1
 0 <= x252 <= 1
 0 <= x253 <= 1
 0 <= x254 <= 1
 0 <= x255 <= 1
 0 <= x256 <= 1
 0 <= x257 <= 1
 0 <= x258 <= 1
 0 <= x259 <= 1
 0 <= x260 <= 1
 0 <= x261 <= 1
 0 <= x262 <= 1
 0 <= x263 <= 1
 0 <= x264 <= 1
 0 <= x265 <= 1
 0 <= x266 <= 1
 0 <= x267 <= 1
 0 <= x268 <= 1
 0 <= x269 <= 1
 0 <= x270 <= 1
 0 <= x271 <= 1
 0 <= x272 <= 1
 0 <= x273 <= 1
 0 <= x274 <= 1
 0 <= x275 <= 1
 0 <= x276 <= 1
 0 <= x277 <= 1
 0 <= x278 <= 1
 0 <= x279 <= 1
 0 <= x280 <= 1
 0 <= x281 <= 1
 0 <= x282 <= 1
 0 <= x283 <= 1
 0 <= x284 <= 1
 0 <= x285 <= 1
 0 <= x286 <= 1
 0 <= x287 <= 1
 0 <= x288 <= 1
 0 <= x289 <= 1
 0 <= x290 <= 1
 0 <= x291 <= 1
 0 <= x292 <= 1
 0 <= x293 <= 1
 0 <= x294 <= 1
 0 <= x295 <= 1
 0 <= x296 <= 1
 0 <= x297 <= 1
 0 <= x298 <= 1
 0 <= x299 <= 1
 0 <= x300 <= 1
Binaries
 x251  x252  x253  x254  x255  x256  x257  x258  x259  x260  x261  x262  x263 
 x264  x265  x266  x267  x268  x269  x270  x271  x272  x273  x274  x275  x276 
 x277  x278  x279  x280  x281  x282  x283  x284  x285  x286  x287  x288  x289 
 x290  x291  x292  x293  x294  x295  x296  x297  x298  x299  x300 
End
